(set-logic QF_S)
(declare-fun var0 () String)
(declare-fun var1 () String)
(declare-fun var2 () String)
(declare-fun var3 () String)
(declare-fun var4 () String)
(declare-fun var5 () String)
(declare-fun var6 () String)
(declare-fun var7 () String)
(declare-fun var8 () String)
(declare-fun var9 () String)
(declare-fun var10 () String)
(declare-fun var11 () String)
(declare-fun var12 () String)
(declare-fun var13 () String)
(declare-fun var14 () String)
(declare-fun var15 () String)
(declare-fun var16 () String)
(declare-fun var17 () String)
(declare-fun var18 () String)
(declare-fun var19 () String)
(declare-fun var20 () String)
(declare-fun var21 () String)
(declare-fun var22 () String)
(declare-fun var23 () String)
(declare-fun var24 () String)
(declare-fun var25 () String)
(declare-fun var26 () String)
(declare-fun var27 () String)
(declare-fun var28 () String)
(declare-fun var29 () String)
(declare-fun var30 () String)
(declare-fun var31 () String)
(declare-fun var32 () String)
(declare-fun var33 () String)
(declare-fun var34 () String)
(declare-fun var35 () String)
(declare-fun var36 () String)
(declare-fun var37 () String)
(declare-fun var38 () String)
(declare-fun var39 () String)
(declare-fun var40 () String)
(declare-fun var41 () String)
(declare-fun var42 () String)
(declare-fun var43 () String)
(declare-fun var44 () String)
(declare-fun var45 () String)
(declare-fun var46 () String)
(declare-fun var47 () String)
(declare-fun var48 () String)
(declare-fun var49 () String)
(declare-fun var50 () String)
(declare-fun var51 () String)
(declare-fun var52 () String)
(declare-fun var53 () String)
(declare-fun var54 () String)
(declare-fun var55 () String)
(declare-fun var56 () String)
(declare-fun var57 () String)
(declare-fun var58 () String)
(declare-fun var59 () String)
(declare-fun var60 () String)
(assert (= var0 (str.++ var1 var2)))
(assert (= var2 (str.++ var3 var4)))
(assert (= var4 (str.++ var5 var6)))
(assert (= var6 (str.++ var7 var8)))
(assert (= var8 (str.++ var9 var10)))
(assert (= var10 (str.++ var11 var12)))
(assert (= var12 (str.++ var13 var14)))
(assert (= var14 (str.++ var15 var16)))
(assert (= var16 (str.++ var17 var18)))
(assert (= var18 (str.++ var19 var20)))
(assert (= var20 (str.++ var21 var22)))
(assert (= var22 (str.++ var23 var24)))
(assert (= var24 (str.++ var25 var26)))
(assert (= var26 (str.++ var27 var28)))
(assert (= var28 (str.++ var29 var30)))
(assert (= var30 (str.++ var31 var32)))
(assert (= var32 (str.++ var33 var34)))
(assert (= var34 (str.++ var35 var36)))
(assert (= var36 (str.++ var37 var38)))
(assert (= var38 (str.++ var39 var40)))
(assert (= var40 (str.++ var41 var42)))
(assert (= var42 (str.++ var43 var44)))
(assert (= var44 (str.++ var45 var46)))
(assert (= var46 (str.++ var47 var48)))
(assert (= var48 (str.++ var49 var50)))
(assert (= var50 (str.++ var51 var52)))
(assert (= var52 (str.++ var53 var54)))
(assert (= var54 (str.++ var55 var56)))
(assert (= var56 (str.++ var57 var58)))
(assert (= var58 (str.++ var59 var60)))
(assert (= var0 "solution"))
(assert (= "a" (str.at var13 990)))
(assert (= "V" (str.at var60 250)))
(assert (= "G" (str.at var31 175)))
(assert (= "]" (str.at var3 852)))
(assert (= "h" (str.at var3 407)))
(assert (= "/" (str.at var44 182)))
(assert (= "I" (str.at var32 596)))
(assert (= "d" (str.at var29 302)))
(assert (= "M" (str.at var8 657)))
(assert (= "!" (str.at var57 487)))
(assert (= "c" (str.at var39 436)))
(assert (= "<" (str.at var14 18)))
(assert (= "l" (str.at var30 117)))
(assert (= "%" (str.at var33 342)))
(assert (= "i" (str.at var23 853)))
(assert (= "L" (str.at var40 376)))
(assert (= "4" (str.at var15 390)))
(assert (= "^" (str.at var42 934)))
(assert (= "x" (str.at var4 679)))
(assert (= "4" (str.at var25 613)))
(assert (= "L" (str.at var26 164)))
(assert (= "}" (str.at var5 156)))
(assert (= "0" (str.at var43 637)))
(assert (= "B" (str.at var36 893)))
(assert (= ":" (str.at var0 437)))
(assert (= "V" (str.at var21 991)))
(assert (= "I" (str.at var11 608)))
(assert (= "P" (str.at var48 994)))
(assert (= "-" (str.at var44 502)))
(assert (= "H" (str.at var36 335)))
(assert (= "F" (str.at var49 263)))
(assert (= "!" (str.at var10 282)))
(assert (= "@" (str.at var7 137)))
(assert (= "D" (str.at var13 331)))
(assert (= "L" (str.at var44 828)))
(assert (= "~" (str.at var3 959)))
(assert (= "|" (str.at var14 938)))
(assert (= "F" (str.at var1 781)))
(assert (= "," (str.at var19 663)))
(assert (= "7" (str.at var46 646)))
(assert (= "Y" (str.at var36 728)))
(assert (= "J" (str.at var8 122)))
(assert (= "K" (str.at var9 813)))
(assert (= "f" (str.at var49 472)))
(assert (= "9" (str.at var60 873)))
(assert (= "3" (str.at var21 615)))
(assert (= "i" (str.at var51 900)))
(assert (= "C" (str.at var36 619)))
(assert (= "]" (str.at var52 97)))
(assert (= "r" (str.at var27 836)))
(assert (= "+" (str.at var5 122)))
(assert (= "t" (str.at var54 15)))
(assert (= "d" (str.at var0 468)))
(assert (= "<" (str.at var36 808)))
(assert (= "s" (str.at var39 475)))
(assert (= "\\" (str.at var31 754)))
(assert (= "f" (str.at var48 886)))
(assert (= "e" (str.at var50 806)))
(assert (= "2" (str.at var34 830)))
(assert (= "u" (str.at var40 414)))
(assert (= "L" (str.at var20 567)))
(assert (= """" (str.at var44 818)))
(assert (= "+" (str.at var7 933)))
(assert (= "j" (str.at var11 165)))
(assert (= "l" (str.at var42 657)))
(assert (= "3" (str.at var36 867)))
(assert (= "E" (str.at var53 409)))
(assert (= "]" (str.at var20 419)))
(assert (= "4" (str.at var18 845)))
(assert (= "(" (str.at var13 37)))
(assert (= "l" (str.at var3 804)))
(assert (= "<" (str.at var50 400)))
(assert (= "%" (str.at var53 859)))
(assert (= "L" (str.at var25 97)))
(assert (= "Y" (str.at var50 226)))
(assert (= "L" (str.at var38 146)))
(assert (= "g" (str.at var36 901)))
(assert (= "9" (str.at var14 914)))
(assert (= "^" (str.at var43 659)))
(assert (= "!" (str.at var3 37)))
(assert (= "%" (str.at var2 96)))
(assert (= "<" (str.at var27 728)))
(assert (= "u" (str.at var18 391)))
(assert (= "J" (str.at var1 109)))
(assert (= "0" (str.at var45 85)))
(assert (= "p" (str.at var56 438)))
(assert (= "{" (str.at var21 728)))
(assert (= "g" (str.at var28 672)))
(assert (= "B" (str.at var27 967)))
(assert (= "Z" (str.at var38 626)))
(assert (= "Y" (str.at var8 231)))
(assert (= "U" (str.at var43 845)))
(assert (= "w" (str.at var21 622)))
(assert (= "c" (str.at var25 516)))
(assert (= "l" (str.at var20 171)))
(assert (= "_" (str.at var47 273)))
(assert (= "c" (str.at var41 361)))
(assert (= "X" (str.at var35 891)))
(assert (= "h" (str.at var7 17)))
(assert (= ";" (str.at var29 700)))
(assert (= "1" (str.at var56 322)))
(assert (= "S" (str.at var22 343)))
(assert (= "#" (str.at var37 761)))
(assert (= "+" (str.at var55 587)))
(assert (= "s" (str.at var56 530)))
(assert (= "." (str.at var46 237)))
(assert (= "`" (str.at var13 978)))
(assert (= "X" (str.at var15 288)))
(assert (= "F" (str.at var10 257)))
(assert (= "%" (str.at var5 727)))
(assert (= "o" (str.at var42 357)))
(assert (= "q" (str.at var52 293)))
(assert (= "d" (str.at var5 747)))
(assert (= "2" (str.at var22 989)))
(assert (= "8" (str.at var0 389)))
(assert (= "c" (str.at var23 473)))
(assert (= "(" (str.at var29 934)))
(assert (= "h" (str.at var8 19)))
(assert (= "}" (str.at var40 328)))
(assert (= "d" (str.at var44 496)))
(assert (= "+" (str.at var1 275)))
(assert (= "E" (str.at var3 585)))
(assert (= ";" (str.at var5 784)))
(assert (= "7" (str.at var44 218)))
(assert (= "y" (str.at var53 412)))
(assert (= "A" (str.at var57 490)))
(assert (= "_" (str.at var46 487)))
(assert (= "g" (str.at var54 742)))
(assert (= ")" (str.at var11 946)))
(assert (= "(" (str.at var45 612)))
(assert (= "8" (str.at var15 323)))
(assert (= "1" (str.at var29 235)))
(assert (= "1" (str.at var25 37)))
(assert (= "R" (str.at var13 963)))
(assert (= "I" (str.at var26 795)))
(assert (= "K" (str.at var47 546)))
(assert (= "X" (str.at var56 38)))
(assert (= "j" (str.at var8 100)))
(assert (= "L" (str.at var41 884)))
(assert (= "W" (str.at var36 722)))
(assert (= "o" (str.at var24 279)))
(assert (= "Y" (str.at var6 764)))
(assert (= "L" (str.at var59 223)))
(assert (= "?" (str.at var14 688)))
(assert (= "r" (str.at var42 656)))
(assert (= "_" (str.at var54 450)))
(assert (= "," (str.at var6 758)))
(assert (= "`" (str.at var5 308)))
(assert (= "H" (str.at var32 53)))
(assert (= "&" (str.at var53 469)))
(assert (= "H" (str.at var52 12)))
(assert (= "?" (str.at var14 395)))
(assert (= "O" (str.at var53 262)))
(assert (= "6" (str.at var3 66)))
(assert (= "0" (str.at var45 718)))
(assert (= "-" (str.at var55 108)))
(assert (= "i" (str.at var51 937)))
(assert (= "f" (str.at var49 601)))
(assert (= "[" (str.at var21 602)))
(assert (= "R" (str.at var20 182)))
(assert (= "F" (str.at var60 571)))
(assert (= "m" (str.at var7 339)))
(assert (= "'" (str.at var52 986)))
(assert (= "[" (str.at var27 442)))
(assert (= "*" (str.at var33 495)))
(assert (= "F" (str.at var17 850)))
(assert (= "c" (str.at var60 887)))
(assert (= ">" (str.at var48 196)))
(assert (= "2" (str.at var42 53)))
(assert (= "N" (str.at var33 481)))
(assert (= "9" (str.at var50 442)))
(assert (= "]" (str.at var57 779)))
(assert (= "m" (str.at var8 825)))
(assert (= "[" (str.at var52 46)))
(assert (= "W" (str.at var1 207)))
(assert (= "p" (str.at var40 2)))
(assert (= "," (str.at var30 360)))
(assert (= "^" (str.at var22 849)))
(assert (= "u" (str.at var38 950)))
(assert (= "d" (str.at var21 720)))
(assert (= "." (str.at var1 530)))
(assert (= "J" (str.at var4 970)))
(assert (= "U" (str.at var35 934)))
(assert (= "k" (str.at var55 762)))
(assert (= ">" (str.at var45 814)))
(assert (= "@" (str.at var11 555)))
(assert (= "n" (str.at var12 713)))
(assert (= "," (str.at var42 543)))
(assert (= "N" (str.at var58 135)))
(assert (= "V" (str.at var44 873)))
(assert (= "T" (str.at var47 269)))
(assert (= "z" (str.at var12 277)))
(assert (= "?" (str.at var38 585)))
(assert (= "T" (str.at var21 897)))
(assert (= "n" (str.at var21 221)))
(assert (= "`" (str.at var19 68)))
(assert (= "M" (str.at var53 236)))
(assert (= "B" (str.at var23 444)))
(assert (= "z" (str.at var26 419)))
(assert (= "y" (str.at var58 605)))
(assert (= "&" (str.at var3 801)))
(assert (= "Y" (str.at var58 270)))
(assert (= "Z" (str.at var8 932)))
(assert (= "n" (str.at var42 499)))
(assert (= "7" (str.at var21 449)))
(assert (= "S" (str.at var10 363)))
(assert (= "X" (str.at var0 565)))
(assert (= "U" (str.at var21 214)))
(assert (= "7" (str.at var19 338)))
(assert (= "7" (str.at var20 999)))
(assert (= "P" (str.at var60 531)))
(assert (= "G" (str.at var20 422)))
(assert (= "W" (str.at var37 41)))
(assert (= "r" (str.at var2 780)))
(assert (= ":" (str.at var45 539)))
(assert (= ")" (str.at var2 696)))
(assert (= "J" (str.at var5 70)))
(assert (= "!" (str.at var52 20)))
(assert (= "=" (str.at var23 650)))
(assert (= "L" (str.at var35 125)))
(assert (= "n" (str.at var37 717)))
(assert (= "-" (str.at var9 641)))
(assert (= "Q" (str.at var59 857)))
(assert (= "`" (str.at var21 436)))
(assert (= "." (str.at var52 24)))
(assert (= "s" (str.at var32 700)))
(assert (= "`" (str.at var57 794)))
(assert (= "A" (str.at var51 380)))
(assert (= "\\" (str.at var12 498)))
(assert (= "E" (str.at var15 6)))
(assert (= "q" (str.at var46 782)))
(assert (= "P" (str.at var10 927)))
(assert (= "]" (str.at var50 459)))
(assert (= ">" (str.at var45 175)))
(assert (= ";" (str.at var59 663)))
(assert (= "+" (str.at var22 104)))
(assert (= "3" (str.at var18 791)))
(assert (= "L" (str.at var17 86)))
(assert (= "G" (str.at var1 840)))
(assert (= "A" (str.at var54 463)))
(assert (= "Y" (str.at var8 708)))
(assert (= "W" (str.at var47 945)))
(assert (= "B" (str.at var8 541)))
(assert (= "S" (str.at var8 568)))
(assert (= "q" (str.at var56 257)))
(assert (= "(" (str.at var9 596)))
(assert (= "1" (str.at var11 859)))
(assert (= "e" (str.at var13 571)))
(assert (= "h" (str.at var50 294)))
(assert (= "0" (str.at var31 815)))
(assert (= "\\" (str.at var46 840)))
(assert (= "~" (str.at var51 840)))
(assert (= "T" (str.at var29 577)))
(assert (= "R" (str.at var42 805)))
(assert (= "Y" (str.at var36 997)))
(assert (= "g" (str.at var44 749)))
(assert (= "J" (str.at var3 432)))
(assert (= "*" (str.at var41 776)))
(assert (= "g" (str.at var56 64)))
(assert (= "]" (str.at var39 943)))
(assert (= "U" (str.at var6 117)))
(assert (= "k" (str.at var16 803)))
(assert (= "Q" (str.at var9 77)))
(assert (= "X" (str.at var28 430)))
(assert (= "O" (str.at var32 99)))
(assert (= "+" (str.at var8 597)))
(assert (= "%" (str.at var13 450)))
(assert (= "C" (str.at var15 918)))
(assert (= "f" (str.at var4 345)))
(assert (= "5" (str.at var25 227)))
(assert (= "-" (str.at var35 985)))
(assert (= "Z" (str.at var39 347)))
(assert (= "<" (str.at var26 120)))
(assert (= "T" (str.at var53 48)))
(assert (= "'" (str.at var0 841)))
(assert (= """" (str.at var17 596)))
(assert (= "p" (str.at var51 287)))
(assert (= "K" (str.at var51 599)))
(assert (= "H" (str.at var17 398)))
(assert (= "L" (str.at var35 539)))
(assert (= "{" (str.at var49 462)))
(assert (= "=" (str.at var58 915)))
(assert (= "C" (str.at var20 678)))
(assert (= "2" (str.at var19 922)))
(assert (= "." (str.at var50 807)))
(assert (= "e" (str.at var29 574)))
(assert (= ">" (str.at var5 263)))
(assert (= "~" (str.at var1 13)))
(assert (= "]" (str.at var37 742)))
(assert (= ";" (str.at var30 914)))
(assert (= "a" (str.at var39 835)))
(assert (= "f" (str.at var34 887)))
(assert (= "?" (str.at var42 904)))
(assert (= "u" (str.at var5 718)))
(assert (= "g" (str.at var27 721)))
(assert (= "R" (str.at var42 897)))
(assert (= "2" (str.at var2 829)))
(assert (= "\\" (str.at var25 636)))
(assert (= "a" (str.at var30 446)))
(assert (= "0" (str.at var39 5)))
(assert (= "R" (str.at var29 100)))
(assert (= "h" (str.at var8 27)))
(assert (= "k" (str.at var44 735)))
(assert (= "b" (str.at var58 822)))
(assert (= "V" (str.at var15 304)))
(assert (= "C" (str.at var52 248)))
(assert (= "~" (str.at var34 828)))
(assert (= "e" (str.at var41 575)))
(assert (= "A" (str.at var35 420)))
(assert (= "A" (str.at var22 763)))
(assert (= "d" (str.at var35 928)))
(assert (= ")" (str.at var0 706)))
(assert (= "5" (str.at var32 60)))
(assert (= "#" (str.at var29 229)))
(assert (= "Y" (str.at var36 560)))
(assert (= "r" (str.at var59 570)))
(assert (= "P" (str.at var18 151)))
(assert (= "O" (str.at var11 890)))
(assert (= "&" (str.at var48 516)))
(assert (= "c" (str.at var3 64)))
(assert (= "t" (str.at var30 821)))
(assert (= "l" (str.at var46 857)))
(assert (= "e" (str.at var8 903)))
(assert (= "*" (str.at var57 930)))
(assert (= "W" (str.at var37 631)))
(assert (= "." (str.at var40 744)))
(assert (= "\\" (str.at var30 268)))
(assert (= "k" (str.at var55 739)))
(assert (= "n" (str.at var29 365)))
(assert (= "5" (str.at var21 715)))
(assert (= "8" (str.at var12 161)))
(assert (= "/" (str.at var45 443)))
(assert (= "," (str.at var45 537)))
(assert (= "~" (str.at var5 973)))
(assert (= "=" (str.at var60 67)))
(assert (= "$" (str.at var50 284)))
(assert (= "O" (str.at var13 988)))
(assert (= "r" (str.at var11 211)))
(assert (= "a" (str.at var18 389)))
(assert (= "`" (str.at var32 711)))
(assert (= "8" (str.at var2 532)))
(assert (= "_" (str.at var8 89)))
(assert (= "w" (str.at var21 369)))
(assert (= "o" (str.at var2 77)))
(assert (= "Y" (str.at var41 200)))
(assert (= "J" (str.at var43 294)))
(assert (= "e" (str.at var49 151)))
(assert (= "@" (str.at var30 551)))
(assert (= "&" (str.at var10 539)))
(assert (= "I" (str.at var39 354)))
(assert (= "o" (str.at var25 592)))
(assert (= "S" (str.at var53 13)))
(assert (= "p" (str.at var22 344)))
(assert (= "g" (str.at var2 729)))
(assert (= "z" (str.at var56 617)))
(assert (= "q" (str.at var22 991)))
(assert (= "+" (str.at var59 349)))
(assert (= "F" (str.at var18 247)))
(assert (= "7" (str.at var44 955)))
(assert (= "W" (str.at var54 838)))
(assert (= "V" (str.at var3 220)))
(assert (= "R" (str.at var39 969)))
(assert (= "H" (str.at var26 538)))
(assert (= "o" (str.at var53 29)))
(assert (= "F" (str.at var49 746)))
(assert (= "V" (str.at var29 418)))
(assert (= "i" (str.at var31 922)))
(assert (= "w" (str.at var56 231)))
(assert (= ">" (str.at var35 32)))
(assert (= "i" (str.at var40 252)))
(assert (= "L" (str.at var22 761)))
(assert (= "`" (str.at var3 187)))
(assert (= "," (str.at var6 538)))
(assert (= "y" (str.at var38 917)))
(assert (= "l" (str.at var24 545)))
(assert (= "-" (str.at var39 313)))
(assert (= "R" (str.at var43 658)))
(assert (= "L" (str.at var48 207)))
(assert (= "'" (str.at var37 90)))
(assert (= "u" (str.at var46 78)))
(assert (= "b" (str.at var29 552)))
(assert (= "Z" (str.at var31 464)))
(assert (= "o" (str.at var54 4)))
(assert (= "k" (str.at var40 733)))
(assert (= "+" (str.at var22 44)))
(assert (= "3" (str.at var33 121)))
(assert (= "z" (str.at var23 829)))
(assert (= "$" (str.at var42 485)))
(assert (= "z" (str.at var59 900)))
(assert (= "~" (str.at var56 376)))
(assert (= """" (str.at var8 457)))
(assert (= "?" (str.at var20 857)))
(assert (= "7" (str.at var2 844)))
(assert (= "Q" (str.at var13 868)))
(assert (= "8" (str.at var43 429)))
(assert (= "J" (str.at var10 488)))
(assert (= "m" (str.at var19 758)))
(assert (= "I" (str.at var21 556)))
(assert (= "D" (str.at var31 594)))
(assert (= "s" (str.at var14 383)))
(assert (= "l" (str.at var14 321)))
(assert (= "l" (str.at var39 820)))
(assert (= "o" (str.at var58 450)))
(assert (= "S" (str.at var3 387)))
(assert (= "}" (str.at var29 867)))
(assert (= "P" (str.at var43 359)))
(assert (= "{" (str.at var47 370)))
(assert (= "d" (str.at var32 395)))
(assert (= ";" (str.at var12 342)))
(assert (= "Q" (str.at var46 953)))
(assert (= "[" (str.at var34 102)))
(assert (= "k" (str.at var43 619)))
(assert (= "6" (str.at var17 500)))
(assert (= "9" (str.at var23 702)))
(assert (= ":" (str.at var52 131)))
(assert (= "B" (str.at var3 522)))
(assert (= "/" (str.at var6 568)))
(assert (= "h" (str.at var57 856)))
(assert (= "S" (str.at var31 483)))
(assert (= "X" (str.at var60 826)))
(assert (= "T" (str.at var25 486)))
(assert (= "[" (str.at var60 851)))
(assert (= "i" (str.at var44 907)))
(assert (= "O" (str.at var54 432)))
(assert (= "Q" (str.at var20 840)))
(assert (= "e" (str.at var47 767)))
(assert (= "S" (str.at var44 808)))
(assert (= """" (str.at var0 991)))
(assert (= "V" (str.at var57 478)))
(assert (= "3" (str.at var6 503)))
(assert (= "Y" (str.at var5 456)))
(assert (= "M" (str.at var55 545)))
(assert (= "s" (str.at var44 446)))
(assert (= "c" (str.at var2 958)))
(assert (= "J" (str.at var17 515)))
(assert (= "D" (str.at var12 806)))
(assert (= "V" (str.at var19 925)))
(assert (= "W" (str.at var14 510)))
(assert (= "A" (str.at var34 417)))
(assert (= "`" (str.at var22 401)))
(assert (= "P" (str.at var3 424)))
(assert (= "r" (str.at var38 913)))
(assert (= "^" (str.at var21 362)))
(assert (= "Y" (str.at var27 293)))
(assert (= "X" (str.at var13 593)))
(assert (= "A" (str.at var26 847)))
(assert (= "D" (str.at var26 233)))
(assert (= "L" (str.at var56 426)))
(assert (= "J" (str.at var25 483)))
(assert (= "2" (str.at var33 740)))
(assert (= ">" (str.at var39 606)))
(assert (= "." (str.at var55 199)))
(assert (= "k" (str.at var59 472)))
(assert (= "C" (str.at var43 487)))
(assert (= "1" (str.at var42 74)))
(assert (= "S" (str.at var50 877)))
(assert (= "c" (str.at var20 4)))
(assert (= ")" (str.at var26 16)))
(assert (= "~" (str.at var48 957)))
(assert (= "+" (str.at var33 97)))
(assert (= "W" (str.at var27 34)))
(assert (= "C" (str.at var3 397)))
(assert (= "i" (str.at var4 132)))
(assert (= """" (str.at var37 45)))
(assert (= "-" (str.at var7 371)))
(assert (= "2" (str.at var3 53)))
(assert (= "{" (str.at var13 276)))
(assert (= "l" (str.at var25 769)))
(assert (= "D" (str.at var60 763)))
(assert (= "L" (str.at var39 817)))
(assert (= ":" (str.at var9 467)))
(assert (= "+" (str.at var5 906)))
(assert (= "o" (str.at var57 381)))
(assert (= "e" (str.at var14 964)))
(assert (= "M" (str.at var42 996)))
(assert (= "9" (str.at var14 384)))
(assert (= "~" (str.at var10 936)))
(assert (= "0" (str.at var57 955)))
(assert (= "v" (str.at var16 952)))
(assert (= "#" (str.at var5 287)))
(assert (= "b" (str.at var13 274)))
(assert (= "Z" (str.at var57 594)))
(assert (= "G" (str.at var56 498)))
(assert (= "S" (str.at var6 673)))
(assert (= "f" (str.at var24 599)))
(assert (= "8" (str.at var55 406)))
(assert (= "3" (str.at var4 105)))
(assert (= "-" (str.at var42 645)))
(assert (= ":" (str.at var53 71)))
(assert (= "i" (str.at var54 911)))
(assert (= "J" (str.at var12 867)))
(assert (= "m" (str.at var38 856)))
(assert (= "j" (str.at var45 382)))
(assert (= """" (str.at var41 165)))
(assert (= "#" (str.at var56 807)))
(assert (= "." (str.at var25 192)))
(assert (= "4" (str.at var19 200)))
(assert (= "X" (str.at var45 183)))
(assert (= "n" (str.at var15 661)))
(assert (= "d" (str.at var47 275)))
(assert (= "_" (str.at var21 542)))
(assert (= "y" (str.at var25 439)))
(assert (= "Z" (str.at var56 769)))
(assert (= "N" (str.at var47 576)))
(assert (= "W" (str.at var56 745)))
(assert (= "." (str.at var39 263)))
(assert (= "2" (str.at var3 357)))
(assert (= "H" (str.at var21 984)))
(assert (= "4" (str.at var16 918)))
(assert (= "n" (str.at var46 415)))
(assert (= """" (str.at var0 911)))
(assert (= "{" (str.at var36 529)))
(assert (= "6" (str.at var30 894)))
(assert (= "d" (str.at var50 514)))
(assert (= ";" (str.at var43 756)))
(assert (= "H" (str.at var56 460)))
(assert (= "7" (str.at var33 67)))
(assert (= "{" (str.at var32 714)))
(assert (= "J" (str.at var44 525)))
(assert (= "n" (str.at var58 693)))
(assert (= "m" (str.at var10 906)))
(assert (= "G" (str.at var29 628)))
(assert (= "-" (str.at var33 134)))
(assert (= "=" (str.at var21 7)))
(assert (= "t" (str.at var2 878)))
(assert (= "D" (str.at var44 681)))
(assert (= ">" (str.at var10 399)))
(assert (= "j" (str.at var14 301)))
(assert (= "}" (str.at var20 34)))
(assert (= "q" (str.at var34 819)))
(assert (= "w" (str.at var26 457)))
(assert (= "~" (str.at var40 518)))
(assert (= "t" (str.at var17 382)))
(assert (= "q" (str.at var12 198)))
(assert (= "," (str.at var10 396)))
(assert (= "1" (str.at var51 526)))
(assert (= "T" (str.at var18 546)))
(assert (= "q" (str.at var7 189)))
(assert (= "M" (str.at var3 994)))
(assert (= "@" (str.at var56 505)))
(assert (= "V" (str.at var21 737)))
(assert (= "y" (str.at var44 439)))
(assert (= "9" (str.at var45 282)))
(assert (= "o" (str.at var40 128)))
(assert (= "9" (str.at var38 674)))
(assert (= "W" (str.at var37 322)))
(assert (= "V" (str.at var16 621)))
(assert (= "Q" (str.at var11 813)))
(assert (= "c" (str.at var7 739)))
(assert (= "!" (str.at var52 450)))
(assert (= "E" (str.at var9 238)))
(assert (= "N" (str.at var32 3)))
(assert (= "p" (str.at var59 521)))
(assert (= "J" (str.at var25 680)))
(assert (= "O" (str.at var6 625)))
(assert (= "," (str.at var14 818)))
(assert (= "d" (str.at var8 363)))
(assert (= "(" (str.at var52 544)))
(assert (= "1" (str.at var48 981)))
(assert (= "=" (str.at var39 144)))
(assert (= "2" (str.at var37 892)))
(assert (= "*" (str.at var51 750)))
(assert (= ";" (str.at var41 866)))
(assert (= "*" (str.at var22 679)))
(assert (= "L" (str.at var51 218)))
(assert (= "Z" (str.at var4 570)))
(assert (= "j" (str.at var48 652)))
(assert (= "0" (str.at var44 916)))
(assert (= "F" (str.at var21 199)))
(assert (= "l" (str.at var37 59)))
(assert (= "f" (str.at var10 740)))
(assert (= "y" (str.at var16 522)))
(assert (= "m" (str.at var11 292)))
(assert (= "%" (str.at var40 95)))
(assert (= "8" (str.at var13 594)))
(assert (= "/" (str.at var18 831)))
(assert (= "h" (str.at var1 63)))
(assert (= "[" (str.at var40 897)))
(assert (= "k" (str.at var12 182)))
(assert (= "4" (str.at var42 780)))
(assert (= "\\" (str.at var8 542)))
(assert (= "a" (str.at var34 203)))
(assert (= "q" (str.at var5 656)))
(assert (= "C" (str.at var13 471)))
(assert (= "u" (str.at var21 659)))
(assert (= "x" (str.at var7 828)))
(assert (= "m" (str.at var13 285)))
(assert (= "v" (str.at var15 715)))
(assert (= "<" (str.at var13 784)))
(assert (= "f" (str.at var52 86)))
(assert (= "(" (str.at var50 345)))
(assert (= "X" (str.at var36 726)))
(assert (= "z" (str.at var23 148)))
(assert (= ":" (str.at var27 31)))
(assert (= "Y" (str.at var19 265)))
(assert (= "~" (str.at var51 34)))
(assert (= "(" (str.at var41 415)))
(assert (= "(" (str.at var0 207)))
(assert (= "/" (str.at var56 714)))
(assert (= "t" (str.at var21 126)))
(assert (= "J" (str.at var17 531)))
(assert (= "S" (str.at var56 119)))
(assert (= "9" (str.at var20 893)))
(assert (= "3" (str.at var3 392)))
(assert (= "U" (str.at var49 60)))
(assert (= "p" (str.at var16 145)))
(assert (= "J" (str.at var11 7)))
(assert (= "y" (str.at var3 869)))
(assert (= "y" (str.at var27 905)))
(assert (= "1" (str.at var7 408)))
(assert (= "y" (str.at var17 375)))
(assert (= "6" (str.at var1 952)))
(assert (= "!" (str.at var17 438)))
(assert (= "\\" (str.at var20 891)))
(assert (= "i" (str.at var31 911)))
(assert (= ";" (str.at var25 468)))
(assert (= "C" (str.at var10 385)))
(assert (= """" (str.at var14 823)))
(assert (= "," (str.at var0 170)))
(assert (= "B" (str.at var24 569)))
(assert (= "N" (str.at var31 639)))
(assert (= "K" (str.at var55 261)))
(assert (= "c" (str.at var37 182)))
(assert (= "M" (str.at var5 815)))
(assert (= "e" (str.at var40 790)))
(assert (= "<" (str.at var23 901)))
(assert (= "f" (str.at var14 834)))
(assert (= "@" (str.at var6 92)))
(assert (= "A" (str.at var7 951)))
(assert (= "(" (str.at var11 81)))
(assert (= "D" (str.at var30 745)))
(assert (= "m" (str.at var3 713)))
(assert (= "0" (str.at var5 740)))
(assert (= "S" (str.at var14 199)))
(assert (= "Q" (str.at var53 770)))
(assert (= "q" (str.at var14 364)))
(assert (= "." (str.at var2 605)))
(assert (= "0" (str.at var19 935)))
(assert (= "." (str.at var0 556)))
(assert (= "L" (str.at var1 978)))
(assert (= "U" (str.at var28 174)))
(assert (= "F" (str.at var5 81)))
(assert (= ">" (str.at var38 414)))
(assert (= "X" (str.at var60 108)))
(assert (= "j" (str.at var7 542)))
(assert (= "[" (str.at var25 701)))
(assert (= "q" (str.at var34 486)))
(assert (= "q" (str.at var4 232)))
(assert (= "-" (str.at var42 179)))
(assert (= "9" (str.at var45 228)))
(assert (= "4" (str.at var7 549)))
(assert (= "v" (str.at var36 868)))
(assert (= "r" (str.at var20 324)))
(assert (= "^" (str.at var12 378)))
(assert (= "F" (str.at var45 107)))
(assert (= ">" (str.at var35 949)))
(assert (= "p" (str.at var18 298)))
(assert (= "p" (str.at var58 117)))
(assert (= "j" (str.at var2 263)))
(assert (= "." (str.at var27 663)))
(assert (= "r" (str.at var1 580)))
(assert (= "4" (str.at var36 1)))
(assert (= "F" (str.at var2 202)))
(assert (= "E" (str.at var31 221)))
(assert (= "c" (str.at var51 666)))
(assert (= "`" (str.at var52 939)))
(assert (= "l" (str.at var49 354)))
(assert (= "@" (str.at var12 694)))
(assert (= "|" (str.at var14 374)))
(assert (= "I" (str.at var28 606)))
(assert (= "e" (str.at var14 37)))
(assert (= "`" (str.at var48 64)))
(assert (= "B" (str.at var30 814)))
(assert (= "j" (str.at var3 857)))
(assert (= "^" (str.at var11 463)))
(assert (= "y" (str.at var41 711)))
(assert (= "=" (str.at var46 218)))
(assert (= "3" (str.at var1 858)))
(assert (= "G" (str.at var50 491)))
(assert (= "^" (str.at var6 387)))
(assert (= ";" (str.at var60 914)))
(assert (= "S" (str.at var0 482)))
(assert (= "u" (str.at var14 38)))
(assert (= "`" (str.at var19 884)))
(assert (= "f" (str.at var27 547)))
(assert (= "." (str.at var46 711)))
(assert (= "3" (str.at var17 483)))
(assert (= ":" (str.at var41 55)))
(assert (= "K" (str.at var43 563)))
(assert (= "?" (str.at var4 843)))
(assert (= "," (str.at var43 577)))
(assert (= "m" (str.at var42 431)))
(assert (= "6" (str.at var42 205)))
(assert (= "r" (str.at var54 577)))
(assert (= "N" (str.at var34 555)))
(assert (= "n" (str.at var40 687)))
(assert (= "u" (str.at var12 751)))
(assert (= "V" (str.at var40 366)))
(assert (= "X" (str.at var23 395)))
(assert (= "U" (str.at var11 408)))
(assert (= "v" (str.at var28 416)))
(assert (= "m" (str.at var15 680)))
(assert (= "H" (str.at var40 30)))
(assert (= "b" (str.at var14 8)))
(assert (= "$" (str.at var20 225)))
(assert (= "|" (str.at var48 159)))
(assert (= "n" (str.at var23 257)))
(assert (= "%" (str.at var18 270)))
(assert (= "Y" (str.at var60 324)))
(assert (= "~" (str.at var48 55)))
(assert (= "s" (str.at var20 968)))
(assert (= "%" (str.at var40 66)))
(assert (= "9" (str.at var6 809)))
(assert (= ">" (str.at var59 333)))
(assert (= "*" (str.at var52 78)))
(assert (= "E" (str.at var4 515)))
(assert (= "G" (str.at var28 872)))
(assert (= "I" (str.at var44 110)))
(assert (= "I" (str.at var17 318)))
(assert (= "]" (str.at var52 814)))
(assert (= "x" (str.at var49 791)))
(assert (= "<" (str.at var12 691)))
(assert (= "n" (str.at var18 422)))
(assert (= "," (str.at var5 630)))
(assert (= "G" (str.at var19 499)))
(assert (= """" (str.at var21 943)))
(assert (= "M" (str.at var34 535)))
(assert (= "n" (str.at var14 14)))
(assert (= "n" (str.at var54 560)))
(assert (= "D" (str.at var14 978)))
(assert (= "s" (str.at var25 81)))
(assert (= "p" (str.at var11 788)))
(assert (= "m" (str.at var41 883)))
(assert (= "x" (str.at var2 922)))
(assert (= "3" (str.at var31 776)))
(assert (= "d" (str.at var27 711)))
(assert (= "L" (str.at var41 730)))
(assert (= "!" (str.at var45 875)))
(assert (= "5" (str.at var10 116)))
(assert (= "Z" (str.at var49 468)))
(assert (= "r" (str.at var40 847)))
(assert (= ")" (str.at var50 783)))
(assert (= "+" (str.at var48 239)))
(assert (= "M" (str.at var36 286)))
(assert (= "M" (str.at var56 796)))
(assert (= ">" (str.at var59 996)))
(assert (= "o" (str.at var42 913)))
(assert (= "0" (str.at var51 93)))
(assert (= "c" (str.at var46 445)))
(assert (= "{" (str.at var15 255)))
(assert (= "z" (str.at var4 364)))
(assert (= "-" (str.at var60 937)))
(assert (= "v" (str.at var12 167)))
(assert (= "x" (str.at var4 139)))
(assert (= "(" (str.at var9 631)))
(assert (= "z" (str.at var33 255)))
(assert (= "L" (str.at var50 844)))
(assert (= "b" (str.at var5 622)))
(assert (= "E" (str.at var32 210)))
(assert (= "O" (str.at var13 232)))
(assert (= "r" (str.at var15 772)))
(assert (= "h" (str.at var31 554)))
(assert (= "f" (str.at var5 309)))
(assert (= "~" (str.at var2 641)))
(assert (= "L" (str.at var2 790)))
(assert (= "U" (str.at var57 783)))
(assert (= "P" (str.at var22 36)))
(assert (= "(" (str.at var9 560)))
(assert (= "$" (str.at var41 63)))
(assert (= "'" (str.at var56 62)))
(assert (= "O" (str.at var14 745)))
(assert (= "y" (str.at var25 110)))
(assert (= "d" (str.at var3 214)))
(assert (= "X" (str.at var19 610)))
(assert (= "x" (str.at var45 596)))
(assert (= "n" (str.at var57 337)))
(assert (= "@" (str.at var24 65)))
(assert (= "n" (str.at var3 798)))
(assert (= "c" (str.at var16 903)))
(assert (= "Q" (str.at var7 700)))
(assert (= "}" (str.at var31 556)))
(assert (= "P" (str.at var28 844)))
(assert (= "r" (str.at var34 100)))
(assert (= "|" (str.at var23 995)))
(assert (= "{" (str.at var52 753)))
(assert (= "h" (str.at var37 898)))
(assert (= ":" (str.at var39 141)))
(assert (= "U" (str.at var40 493)))
(assert (= "?" (str.at var7 855)))
(assert (= "{" (str.at var32 37)))
(assert (= "O" (str.at var44 106)))
(assert (= "$" (str.at var20 643)))
(assert (= "O" (str.at var37 474)))
(assert (= "m" (str.at var9 151)))
(assert (= "g" (str.at var16 927)))
(assert (= "J" (str.at var13 502)))
(assert (= "H" (str.at var47 495)))
(assert (= "9" (str.at var46 150)))
(assert (= "}" (str.at var33 272)))
(assert (= "|" (str.at var53 240)))
(assert (= "<" (str.at var43 279)))
(assert (= "+" (str.at var18 437)))
(assert (= "t" (str.at var50 210)))
(assert (= "c" (str.at var42 387)))
(assert (= "*" (str.at var28 268)))
(assert (= "6" (str.at var46 496)))
(assert (= "A" (str.at var6 926)))
(assert (= "Y" (str.at var60 56)))
(assert (= "*" (str.at var54 438)))
(assert (= "y" (str.at var7 821)))
(assert (= "g" (str.at var32 10)))
(assert (= "u" (str.at var3 744)))
(assert (= "g" (str.at var27 668)))
(assert (= "3" (str.at var58 401)))
(assert (= "a" (str.at var24 13)))
(assert (= "A" (str.at var41 265)))
(assert (= "s" (str.at var1 418)))
(assert (= "T" (str.at var60 560)))
(assert (= "m" (str.at var27 403)))
(assert (= "R" (str.at var39 82)))
(assert (= "Z" (str.at var44 570)))
(assert (= "K" (str.at var1 474)))
(assert (= "X" (str.at var44 456)))
(assert (= "Y" (str.at var37 473)))
(assert (= "f" (str.at var40 746)))
(assert (= "`" (str.at var16 798)))
(assert (= "X" (str.at var38 165)))
(assert (= "g" (str.at var14 28)))
(assert (= "0" (str.at var12 659)))
(assert (= "N" (str.at var6 142)))
(assert (= "Q" (str.at var44 447)))
(assert (= "X" (str.at var48 521)))
(assert (= "p" (str.at var32 889)))
(assert (= "H" (str.at var37 416)))
(assert (= "&" (str.at var20 794)))
(assert (= "1" (str.at var49 145)))
(assert (= """" (str.at var6 740)))
(assert (= "b" (str.at var45 686)))
(assert (= "F" (str.at var16 415)))
(assert (= "y" (str.at var49 294)))
(assert (= "_" (str.at var28 996)))
(check-sat)